



































































































28 12 13 46 47 48 
74 9 64 54 49 
15 55 10 22 51 
31 25 61 4 35 
30 40 70 56 60 
63 7 36 65 16 
20 21 1 6 44 
66 17 23 69 43 
3 45 11 52 18 
33 50 57 71 39 
72 27 24 0 42 2 
29 8 68 67 41 37 
73 75 19 5 76 
26 59 53 58 32 
38 14 62 34 
